Score: 1099612
76140 69221
69271 62979
41755 37964
49960 45426
100101 91020
154583 140569
59674 54269
82974 75464
129576 117849
100298 91223
4819 4383
56510 51398
72749 66168
79720 72510
7951 7232
7273 6617
5141 4680
327 298
437 399
244 225
87 81
22 21
